SumColouring/JavaBacktracker/RandomInstances/24_0.20_3.col
c File: instances/24_0.20_3.col
c
c Description: Random graph of size 24 vertices and P(0.2) of edges between any two vertices.
p col 24 276
e 1 8
e 1 18
e 2 5
e 2 8
e 2 13
e 2 15
e 2 16
e 3 4
e 3 6
e 3 12
e 3 17
e 4 8
e 4 12
e 4 13
e 4 14
e 4 16
e 4 17
e 4 19
e 4 21
e 5 6
e 5 8
e 5 13
e 6 16
e 6 18
e 6 19
e 6 21
e 6 22
e 7 9
e 7 24
e 8 9
e 8 14
e 8 18
e 8 19
e 9 10
e 9 11
e 9 12
e 9 18
e 9 19
e 9 23
e 10 11
e 10 17
e 10 19
e 12 13
e 12 14
e 14 18
e 14 19
e 15 17
e 15 21
e 15 23
e 16 21
e 16 22
e 16 23
e 17 19
e 17 21
e 17 23
e 18 21
e 18 24
e 19 21
e 19 22
e 19 24
e 20 22